NAME : mar10_100_3
COMMENT : Data set with 10 points
COMMENT : CIn-UFPE
COMMENT : Contributed by Marcelo Lacerda
TYPE : TSP
DIMENSION : 10
EDGE_WEIGHT_TYPE : EUC_2D
NODE_COORD_SECTION
1 24 62
2 19 40
3 82 31
4 52 58
5 2 6
6 29 12
7 51 4
8 72 51
9 34 55
10 99 60
EOF
